(set-logic ALL)
(declare-const BAV1 Bool)
(declare-const BAV2 Bool)
(declare-const BAV3 Bool)
(declare-const BAV4 Bool)
(declare-const BAV5 Bool)
(declare-const GEN5 Int)
(declare-const GEN4 Int)
(declare-const GEN3 Int)
(declare-const GEN2 Int)
(declare-const GEN1 Int)
(set-option :auto-config true)
(set-option :produce-models true)
(set-info :smt-lib-version 2.0)
(declare-fun v () Int)
(declare-fun x () Int)
(assert (and (<= GEN1 v) (< GEN2 x) (<= x GEN3) (not (> (- x GEN4) GEN5))))
(assert (= BAV1 (and (<= GEN1 v) (< GEN2 x) (<= x GEN3) (not (> (- x GEN4) GEN5)))))
(assert (= BAV2 (<= GEN1 v)))
(assert (= BAV3 (< GEN2 x)))
(assert (= BAV4 (<= x GEN3)))
(assert (= BAV5 (> (- x GEN4) GEN5)))
(check-sat)
(get-model)